119 48 011 1
1
786 113 1
664 114 1
568 115 1
523 116 1
652 117 1
650 118 1
626 119 1
686 108 1
575 109 1
681 110 1
746 111 1
793 112 1
606 113 1
786 114 1
623 115 1
631 116 1
723 117 1
513 118 1
567 119 1
593 108 1
600 109 1
693 110 1
535 111 1
538 112 1
707 113 1
607 114 1
559 115 1
631 116 1
699 117 1
778 118 1
732 119 1
822 108 1
649 109 1
691 110 1
560 111 1
623 112 1
544 113 1
542 114 1
674 115 1
540 116 1
581 117 1
699 118 1
710 119 1
657 108 1
904 109 1
715 110 1
619 111 1
647 112 1
1
1
1
1
1
1
1
1
1
1
1
1
1
1
1
1
1
1
1
1
1
1
1
1
1
1
1
1
1
1
1
1
1
1
1
1
1
1
1
1
1
1
1
1
1
1
1
1
1
1
1
1
1
1
1
1
1
1
1 9 685 21 592 33 821 45 656
1 10 574 22 599 34 648 46 903
1 11 680 23 692 35 690 47 714
1 12 745 24 534 36 559 48 618
1 13 792 25 537 37 622 49 646
1 2 785 14 605 26 706 38 543
1 3 663 15 785 27 606 39 541
1 4 567 16 622 28 558 40 673
1 5 522 17 630 29 630 41 539
1 6 651 18 722 30 698 42 580
1 7 649 19 512 31 777 43 698
1 8 625 20 566 32 731 44 709
